qbf_easy_train/easy_2419_SAT.qdimacs
p cnf 22 51
a 9 1 6 0
e 2 3 4 5 7 8 10 11 12 13 14 15 16 17 18 19 20 21 22 0
1 -2 -3 0
-1 2 -3 0
1 2 3 0
-1 -2 3 0
7 5 0
7 -6 0
-5 6 -7 0
-7 8 -9 0
7 -8 -9 0
-7 -8 9 0
7 8 9 0
-10 4 0
-10 9 0
-4 -9 10 0
4 -11 -12 0
-4 11 -12 0
4 11 12 0
-4 -11 12 0
13 -10 0
13 -12 0
10 12 -13 0
14 3 0
14 13 0
-3 -13 -14 0
-9 -15 0
9 -15 0
17 16 0
17 7 0
-16 -7 -17 0
18 2 0
18 -17 0
-2 17 -18 0
-15 18 -19 0
15 -18 -19 0
-15 -18 19 0
15 18 19 0
20 -5 0
20 -2 0
5 2 -20 0
-21 -19 0
-21 20 0
19 -20 21 0
-22 14 0
-22 -21 0
-14 21 22 0
-7 16 5 18 21 0
18 10 21 15 0
-16 -6 21 -10 13 -15 0
17 18 -9 0
15 22 13 5 11 9 -8 0
22 0
