sat_easy_train/easy_2419_SAT.dimacs
p cnf 111 354
-3 1 0
-3 -2 0
-1 2 3 0
-4 1 0
-4 2 0
-1 -2 4 0
6 -4 0
6 -5 0
4 5 -6 0
7 5 0
7 -4 0
-5 4 -7 0
-8 6 0
-8 7 0
-6 -7 8 0
9 8 0
9 -8 0
10 -3 0
10 -9 0
3 9 -10 0
-12 -1 0
-12 11 0
1 -11 12 0
14 -1 0
14 13 0
1 -13 -14 0
17 -15 0
17 -16 0
15 16 -17 0
-18 14 0
-18 17 0
-14 -17 18 0
19 12 0
19 18 0
-12 -18 -19 0
21 -19 0
21 20 0
19 -20 -21 0
22 -10 0
22 21 0
10 -21 -22 0
23 18 -24 0
-23 -18 -24 0
23 -18 24 0
-23 18 24 0
16 24 -25 0
-16 -24 -25 0
16 -24 25 0
-16 24 25 0
25 26 -27 0
-25 -26 -27 0
25 -26 27 0
-25 26 27 0
-6 -24 -28 0
6 24 -28 0
-6 24 28 0
6 -24 28 0
-29 -17 0
-29 18 0
17 -18 29 0
30 -28 0
30 -29 0
28 29 -30 0
32 31 0
32 25 0
-31 -25 -32 0
-33 -30 0
-33 32 0
30 -32 33 0
36 35 0
36 -1 0
-35 1 -36 0
-26 36 -37 0
26 -36 -37 0
-26 -36 37 0
26 36 37 0
-38 6 0
-38 -16 0
-6 16 38 0
-13 -38 -39 0
13 38 -39 0
-13 38 39 0
13 -38 39 0
-37 -39 -40 0
37 39 -40 0
-37 39 40 0
37 -39 40 0
34 40 -41 0
-34 -40 -41 0
34 -40 41 0
-34 40 41 0
-42 33 0
-42 41 0
-33 -41 42 0
-43 -16 0
-43 34 0
16 -34 43 0
-44 42 0
-44 -43 0
-42 43 44 0
-46 -17 0
-46 45 0
17 -45 46 0
47 -23 0
47 16 0
23 -16 -47 0
48 -47 0
48 26 0
47 -26 -48 0
46 48 -49 0
-46 -48 -49 0
46 -48 49 0
-46 48 49 0
-50 -44 0
-50 49 0
44 -49 50 0
51 27 0
51 -50 0
-27 50 -51 0
-52 -22 0
-52 -51 0
22 51 52 0
-53 -5 0
-53 19 0
5 -19 53 0
14 7 -54 0
-14 -7 -54 0
14 -7 54 0
-14 7 54 0
14 54 -55 0
-14 -54 -55 0
14 -54 55 0
-14 54 55 0
24 56 0
-24 56 0
57 -5 0
57 20 0
5 -20 -57 0
-58 56 0
-58 57 0
-56 -57 58 0
59 55 0
59 58 0
-55 -58 -59 0
-36 59 -60 0
36 -59 -60 0
-36 -59 60 0
36 59 60 0
53 60 -61 0
-53 -60 -61 0
53 -60 61 0
-53 60 61 0
-16 -59 -62 0
16 59 -62 0
-16 59 62 0
16 -59 62 0
63 -61 0
63 -62 0
61 62 -63 0
64 34 0
64 8 0
-34 -8 -64 0
-65 11 0
-65 64 0
-11 -64 65 0
-66 6 0
-66 -65 0
-6 65 66 0
67 63 0
67 -66 0
-63 66 -67 0
-68 -20 0
-68 56 0
20 -56 68 0
-69 68 0
-69 13 0
-68 -13 69 0
-13 17 -70 0
13 -17 -70 0
-13 -17 70 0
13 17 70 0
45 70 -71 0
-45 -70 -71 0
45 -70 71 0
-45 70 71 0
-72 39 0
-72 -38 0
-39 38 72 0
72 -29 -73 0
-72 29 -73 0
72 29 73 0
-72 -29 73 0
-29 -48 -74 0
29 48 -74 0
-29 48 74 0
29 -48 74 0
75 -73 0
75 74 0
73 -74 -75 0
71 -75 -76 0
-71 75 -76 0
71 75 76 0
-71 -75 76 0
77 69 0
77 76 0
-69 -76 -77 0
-78 56 0
-78 -5 0
-56 5 78 0
79 -77 0
79 -78 0
77 78 -79 0
67 79 -80 0
-67 -79 -80 0
67 -79 80 0
-67 79 80 0
47 -81 -82 0
-47 81 -82 0
47 81 82 0
-47 -81 82 0
-59 -40 -83 0
59 40 -83 0
-59 40 83 0
59 -40 83 0
84 35 0
84 83 0
-35 -83 -84 0
85 46 0
85 59 0
-46 -59 -85 0
-84 85 -86 0
84 -85 -86 0
-84 -85 86 0
84 85 86 0
87 -82 0
87 86 0
82 -86 -87 0
88 80 0
88 -87 0
-80 87 -88 0
89 24 0
89 -24 0
90 19 0
90 -5 0
-19 5 -90 0
91 -37 0
91 -39 0
37 39 -91 0
-92 90 0
-92 91 0
-90 -91 92 0
-57 -23 -93 0
57 23 -93 0
-57 23 93 0
57 -23 93 0
92 93 -94 0
-92 -93 -94 0
92 -93 94 0
-92 93 94 0
95 -89 0
95 94 0
89 -94 -95 0
97 34 0
97 -96 0
-34 96 -97 0
-98 -97 0
-98 -96 0
97 96 98 0
99 -26 0
99 98 0
26 -98 -99 0
-100 -54 0
-100 -12 0
54 12 100 0
45 100 -101 0
-45 -100 -101 0
45 -100 101 0
-45 100 101 0
-102 -99 0
-102 -101 0
99 101 102 0
103 -19 0
103 19 0
104 20 0
104 35 0
-20 -35 -104 0
105 24 0
105 57 0
-24 -57 -105 0
-106 -104 0
-106 -105 0
104 105 106 0
107 -103 0
107 -106 0
103 106 -107 0
-108 -102 0
-108 107 0
102 -107 108 0
109 95 0
109 108 0
-95 -108 -109 0
110 -88 0
110 -109 0
88 109 -110 0
111 52 0
111 -110 0
-52 110 -111 0
1 -23 -101 87 0
90 46 12 -73 0
-67 -52 -12 34 -35 0
-58 77 -83 34 -108 -16 0
73 -38 64 0
66 34 72 -20 0
-51 -76 65 -86 55 36 0
-15 1 0
36 85 0
-105 -68 0
11 -77 0
29 14 15 -36 0
53 -55 0
6 16 0
-82 -49 11 -43 -32 0
-109 -20 -58 0
70 110 -93 -106 0
6 -37 49 0
-55 35 30 -11 0
2 -42 43 10 111 0
-78 -108 92 0
-54 33 35 -87 0
-48 -78 -32 -44 0
70 -73 39 0
-73 1 0
-27 -73 2 0
104 47 0
90 93 68 36 75 -89 0
-65 -1 40 54 60 33 0
-107 -89 92 -62 -97 0
34 -48 -109 -46 -49 0
94 107 76 111 27 0
-61 93 0
-11 -64 -97 -80 0
-45 2 74 -53 0
-83 73 0
89 97 -101 -37 56 0
47 35 -65 6 0
-51 106 -46 65 0
-67 -13 84 27 32 -103 0
-58 29 20 31 0
-53 -72 49 0
-68 49 12 76 -109 0
44 -91 0
65 107 0
14 27 -100 0
111 0
